NAME : sample_20
COMMENT : Sample TSP instance with 20 cities
TYPE : TSP
DIMENSION : 20
EDGE_WEIGHT_TYPE : EUC_2D
NODE_COORD_SECTION
1 989 297
2 229 949
3 948 198
4 158 920
5 368 920
6 140 499
7 367 410
8 867 357
9 537 777
10 608 742
11 602 9
12 414 269
13 155 477
14 141 164
15 324 56
16 131 787
17 689 764
18 135 888
19 187 864
20 288 17
EOF
